(set-info :source |printed by MathSAT|)
(declare-fun |!{$(in_main#0)<N>}| () Int)
(declare-fun |!{$(in_main#0)<N>}.next| () Int)
(declare-fun |!{$(in_main#0)<&array>}| () Int)
(declare-fun |!{$(in_main#0)<&array>}.next| () Int)
(declare-fun |!{$(in_main#0)<k>}| () Int)
(declare-fun |!{$(in_main#0)<k>}.next| () Int)
(declare-fun |!{$(in_main#0)<k#1>}| () Int)
(declare-fun |!{$(in_main#0)<k#1>}.next| () Int)
(declare-fun |!{$(in_main#0)<max>}| () Int)
(declare-fun |!{$(in_main#0)<max>}.next| () Int)
(declare-fun |!{%memaddr}| () Int)
(declare-fun |!{%memaddr}.next| () Int)
(declare-fun |!{%mem.0}| () (Array Int Int))
(declare-fun |!{%mem.0}.next| () (Array Int Int))
(declare-fun |!{$(in_main#0)<$(in___VERIFIER_nondet_int#1)<h#<__VERIFIER_nondet_int.return>>>}| () Int)
(declare-fun |!{$(in_main#0)<$(in___VERIFIER_nondet_int#3)<h#<__VERIFIER_nondet_int.return>>>}| () Int)
(declare-fun |!{$(in_main#0)<$(in_rec_array_max#4)<$temp.1>>}| () Int)
(declare-fun |!{$(in_main#0)<$(in_rec_array_max#4)<max>>}| () Int)
(declare-fun |!{$(in_main#0)<$(in_rec_array_max#4)<$tmp>>}| () Int)
(declare-fun |!{$(in_main#0)<$(in_rec_array_max#4)<$(in_rec_array_max#0)<$temp.1>>>}| () Int)
(declare-fun |!{$(in_main#0)<$(in_rec_array_max#4)<$(in_rec_array_max#0)<max>>>}| () Int)
(declare-fun |!{$(in_main#0)<$(in_rec_array_max#4)<$(in_rec_array_max#0)<$tmp>>>}| () Int)
(declare-fun !pc () Int)
(declare-fun !pc.next () Int)
(declare-fun |%{$(in_main#0)<k#1>}#1| () Int)
(declare-fun |%{$(in_main#0)<max>}#1| () Int)
(declare-fun rec_array_max<0> (Int Int Int Int) Int)
(declare-fun |%{$(in_main#0)<$(in_rec_array_max#4)<$(in_rec_array_max#0)<rec_array_max.return>>>}#3| () Int)
(declare-fun |%{$(in_main#0)<$(in_rec_array_max#4)<$(in_rec_array_max#0)<$temp.1>>>}#3| () Int)
(declare-fun |%{$(in_main#0)<$(in_rec_array_max#4)<$(in_rec_array_max#0)<max>>>}#3| () Int)
(declare-fun |%{$(in_main#0)<$(in_rec_array_max#4)<$(in_rec_array_max#0)<$tmp>>>}#3| () Int)
(declare-fun |%{$(in_main#0)<$(in_rec_array_max#4)<rec_array_max.return>>}#3| () Int)
(declare-fun |%{$(in_main#0)<$(in_rec_array_max#4)<$temp.1>>}#3| () Int)
(declare-fun |%{$(in_main#0)<$(in_rec_array_max#4)<max>>}#3| () Int)
(declare-fun |%{$(in_main#0)<$(in_rec_array_max#4)<$tmp>>}#3| () Int)
(define-fun .def_60 () Int (! !pc :next !pc.next))
(define-fun .def_63 () Bool (! (= .def_60 2) :init true))
(define-fun .def_321 () Bool (= .def_60 49))
(define-fun .def_148 () Bool (= !pc.next 175))
(define-fun .def_324 () Bool (and .def_148 .def_321))
(define-fun .def_315 () Bool (= |!{$(in_main#0)<max>}.next| |%{$(in_main#0)<$(in_rec_array_max#4)<rec_array_max.return>>}#3|))
(define-fun .def_313 () Bool (= |!{$(in_main#0)<k#1>}.next| 0))
(define-fun .def_10 () Int (! |!{$(in_main#0)<&array>}| :next |!{$(in_main#0)<&array>}.next|))
(define-fun .def_111 () Bool (= .def_10 |!{$(in_main#0)<&array>}.next|))
(define-fun .def_8 () Int (! |!{$(in_main#0)<N>}| :next |!{$(in_main#0)<N>}.next|))
(define-fun .def_109 () Bool (= .def_8 |!{$(in_main#0)<N>}.next|))
(define-fun .def_123 () Bool (and .def_109 .def_111))
(define-fun .def_12 () Int (! |!{$(in_main#0)<k>}| :next |!{$(in_main#0)<k>}.next|))
(define-fun .def_113 () Bool (= .def_12 |!{$(in_main#0)<k>}.next|))
(define-fun .def_124 () Bool (and .def_113 .def_123))
(define-fun .def_314 () Bool (and .def_124 .def_313))
(define-fun .def_316 () Bool (and .def_314 .def_315))
(define-fun .def_18 () Int (! |!{%memaddr}| :next |!{%memaddr}.next|))
(define-fun .def_119 () Bool (= .def_18 |!{%memaddr}.next|))
(define-fun .def_317 () Bool (and .def_119 .def_316))
(define-fun .def_20 () (Array Int Int) (! |!{%mem.0}| :next |!{%mem.0}.next|))
(define-fun .def_91 () Bool (= .def_20 |!{%mem.0}.next|))
(define-fun .def_318 () Bool (and .def_91 .def_317))
(define-fun .def_296 () Bool (= |!{$(in_main#0)<$(in_rec_array_max#4)<$tmp>>}| |%{$(in_main#0)<$(in_rec_array_max#4)<$tmp>>}#3|))
(define-fun .def_290 () Bool (= |!{$(in_main#0)<$(in_rec_array_max#4)<max>>}| |%{$(in_main#0)<$(in_rec_array_max#4)<max>>}#3|))
(define-fun .def_284 () Bool (= |!{$(in_main#0)<$(in_rec_array_max#4)<$temp.1>>}| |%{$(in_main#0)<$(in_rec_array_max#4)<$temp.1>>}#3|))
(define-fun .def_166 () Bool (<= 0 .def_8))
(define-fun .def_164 () Bool (<= .def_8 0))
(define-fun .def_165 () Bool (not .def_164))
(define-fun .def_167 () Bool (and .def_165 .def_166))
(define-fun .def_280 () Bool (not .def_167))
(define-fun .def_286 () Bool (and .def_280 .def_284))
(define-fun .def_292 () Bool (and .def_286 .def_290))
(define-fun .def_298 () Bool (and .def_292 .def_296))
(define-fun .def_181 () Int (+ .def_8 .def_10))
(define-fun .def_245 () Int (select .def_20 .def_181))
(define-fun .def_262 () Bool (= .def_245 |%{$(in_main#0)<$(in_rec_array_max#4)<rec_array_max.return>>}#3|))
(define-fun .def_300 () Bool (and .def_262 .def_298))
(define-fun .def_297 () Bool (= |%{$(in_main#0)<$(in_rec_array_max#4)<$(in_rec_array_max#0)<rec_array_max.return>>>}#3| |%{$(in_main#0)<$(in_rec_array_max#4)<$tmp>>}#3|))
(define-fun .def_291 () Bool (= |%{$(in_main#0)<$(in_rec_array_max#4)<$(in_rec_array_max#0)<rec_array_max.return>>>}#3| |%{$(in_main#0)<$(in_rec_array_max#4)<max>>}#3|))
(define-fun .def_285 () Bool (= |%{$(in_main#0)<$(in_rec_array_max#4)<$(in_rec_array_max#0)<rec_array_max.return>>>}#3| |%{$(in_main#0)<$(in_rec_array_max#4)<$temp.1>>}#3|))
(define-fun .def_274 () Bool (= |%{$(in_main#0)<$(in_rec_array_max#4)<$(in_rec_array_max#0)<rec_array_max.return>>>}#3| |%{$(in_main#0)<$(in_rec_array_max#4)<rec_array_max.return>>}#3|))
(define-fun .def_243 () Int (select .def_20 .def_10))
(define-fun .def_250 () Bool (<= .def_243 .def_245))
(define-fun .def_249 () Bool (<= |%{$(in_main#0)<$(in_rec_array_max#4)<$(in_rec_array_max#0)<rec_array_max.return>>>}#3| .def_245))
(define-fun .def_251 () Bool (and .def_249 .def_250))
(define-fun .def_269 () Bool (not .def_251))
(define-fun .def_246 () Bool (<= .def_245 .def_243))
(define-fun .def_244 () Bool (<= |%{$(in_main#0)<$(in_rec_array_max#4)<$(in_rec_array_max#0)<rec_array_max.return>>>}#3| .def_243))
(define-fun .def_247 () Bool (and .def_244 .def_246))
(define-fun .def_248 () Bool (not .def_247))
(define-fun .def_270 () Bool (and .def_248 .def_269))
(define-fun .def_275 () Bool (and .def_270 .def_274))
(define-fun .def_255 () Bool (and .def_248 .def_251))
(define-fun .def_264 () Bool (and .def_255 .def_262))
(define-fun .def_261 () Bool (= .def_243 |%{$(in_main#0)<$(in_rec_array_max#4)<rec_array_max.return>>}#3|))
(define-fun .def_263 () Bool (and .def_247 .def_261))
(define-fun .def_265 () Bool (or .def_263 .def_264))
(define-fun .def_276 () Bool (or .def_265 .def_275))
(define-fun .def_235 () Bool (= |!{$(in_main#0)<$(in_rec_array_max#4)<$(in_rec_array_max#0)<$tmp>>>}| |%{$(in_main#0)<$(in_rec_array_max#4)<$(in_rec_array_max#0)<$tmp>>>}#3|))
(define-fun .def_229 () Bool (= |!{$(in_main#0)<$(in_rec_array_max#4)<$(in_rec_array_max#0)<max>>>}| |%{$(in_main#0)<$(in_rec_array_max#4)<$(in_rec_array_max#0)<max>>>}#3|))
(define-fun .def_223 () Bool (= |!{$(in_main#0)<$(in_rec_array_max#4)<$(in_rec_array_max#0)<$temp.1>>>}| |%{$(in_main#0)<$(in_rec_array_max#4)<$(in_rec_array_max#0)<$temp.1>>>}#3|))
(define-fun .def_171 () Bool (<= 2 .def_8))
(define-fun .def_169 () Bool (<= .def_8 1))
(define-fun .def_170 () Bool (not .def_169))
(define-fun .def_172 () Bool (and .def_170 .def_171))
(define-fun .def_218 () Bool (not .def_172))
(define-fun .def_225 () Bool (and .def_218 .def_223))
(define-fun .def_231 () Bool (and .def_225 .def_229))
(define-fun .def_237 () Bool (and .def_231 .def_235))
(define-fun .def_182 () Int (+ .def_181 (- 1)))
(define-fun .def_183 () Int (select .def_20 .def_182))
(define-fun .def_200 () Bool (= .def_183 |%{$(in_main#0)<$(in_rec_array_max#4)<$(in_rec_array_max#0)<rec_array_max.return>>>}#3|))
(define-fun .def_239 () Bool (and .def_200 .def_237))
(define-fun .def_175 () Int (+ .def_8 (- 2)))
(define-fun .def_176 () Int (rec_array_max<0> .def_10 2 .def_175 .def_8))
(define-fun .def_236 () Bool (= .def_176 |%{$(in_main#0)<$(in_rec_array_max#4)<$(in_rec_array_max#0)<$tmp>>>}#3|))
(define-fun .def_230 () Bool (= .def_176 |%{$(in_main#0)<$(in_rec_array_max#4)<$(in_rec_array_max#0)<max>>>}#3|))
(define-fun .def_224 () Bool (= .def_176 |%{$(in_main#0)<$(in_rec_array_max#4)<$(in_rec_array_max#0)<$temp.1>>>}#3|))
(define-fun .def_212 () Bool (= .def_176 |%{$(in_main#0)<$(in_rec_array_max#4)<$(in_rec_array_max#0)<rec_array_max.return>>>}#3|))
(define-fun .def_177 () Int (+ .def_10 1))
(define-fun .def_178 () Int (select .def_20 .def_177))
(define-fun .def_188 () Bool (<= .def_178 .def_183))
(define-fun .def_187 () Bool (<= .def_176 .def_183))
(define-fun .def_189 () Bool (and .def_187 .def_188))
(define-fun .def_207 () Bool (not .def_189))
(define-fun .def_184 () Bool (<= .def_183 .def_178))
(define-fun .def_179 () Bool (<= .def_176 .def_178))
(define-fun .def_185 () Bool (and .def_179 .def_184))
(define-fun .def_186 () Bool (not .def_185))
(define-fun .def_208 () Bool (and .def_186 .def_207))
(define-fun .def_213 () Bool (and .def_208 .def_212))
(define-fun .def_193 () Bool (and .def_186 .def_189))
(define-fun .def_202 () Bool (and .def_193 .def_200))
(define-fun .def_199 () Bool (= .def_178 |%{$(in_main#0)<$(in_rec_array_max#4)<$(in_rec_array_max#0)<rec_array_max.return>>>}#3|))
(define-fun .def_201 () Bool (and .def_185 .def_199))
(define-fun .def_203 () Bool (or .def_201 .def_202))
(define-fun .def_214 () Bool (or .def_203 .def_213))
(define-fun .def_215 () Bool (and .def_172 .def_214))
(define-fun .def_226 () Bool (and .def_215 .def_224))
(define-fun .def_232 () Bool (and .def_226 .def_230))
(define-fun .def_238 () Bool (and .def_232 .def_236))
(define-fun .def_240 () Bool (or .def_238 .def_239))
(define-fun .def_277 () Bool (and .def_240 .def_276))
(define-fun .def_278 () Bool (and .def_167 .def_277))
(define-fun .def_287 () Bool (and .def_278 .def_285))
(define-fun .def_293 () Bool (and .def_287 .def_291))
(define-fun .def_299 () Bool (and .def_293 .def_297))
(define-fun .def_301 () Bool (or .def_299 .def_300))
(define-fun .def_319 () Bool (and .def_301 .def_318))
(define-fun .def_159 () Bool (<= .def_8 .def_12))
(define-fun .def_320 () Bool (and .def_159 .def_319))
(define-fun .def_325 () Bool (and .def_320 .def_324))
(define-fun .def_95 () Bool (= !pc.next 49))
(define-fun .def_322 () Bool (and .def_95 .def_321))
(define-fun .def_161 () Int (+ .def_10 .def_12))
(define-fun .def_162 () (Array Int Int) (store .def_20 .def_161 |!{$(in_main#0)<$(in___VERIFIER_nondet_int#3)<h#<__VERIFIER_nondet_int.return>>>}|))
(define-fun .def_310 () Bool (= |!{%mem.0}.next| .def_162))
(define-fun .def_303 () Int (* (- 1) |!{$(in_main#0)<k>}.next|))
(define-fun .def_304 () Int (+ .def_12 .def_303))
(define-fun .def_305 () Bool (= .def_304 (- 1)))
(define-fun .def_306 () Bool (and .def_123 .def_305))
(define-fun .def_14 () Int (! |!{$(in_main#0)<k#1>}| :next |!{$(in_main#0)<k#1>}.next|))
(define-fun .def_115 () Bool (= .def_14 |!{$(in_main#0)<k#1>}.next|))
(define-fun .def_307 () Bool (and .def_115 .def_306))
(define-fun .def_16 () Int (! |!{$(in_main#0)<max>}| :next |!{$(in_main#0)<max>}.next|))
(define-fun .def_117 () Bool (= .def_16 |!{$(in_main#0)<max>}.next|))
(define-fun .def_308 () Bool (and .def_117 .def_307))
(define-fun .def_309 () Bool (and .def_119 .def_308))
(define-fun .def_311 () Bool (and .def_309 .def_310))
(define-fun .def_160 () Bool (not .def_159))
(define-fun .def_312 () Bool (and .def_160 .def_311))
(define-fun .def_323 () Bool (and .def_312 .def_322))
(define-fun .def_326 () Bool (or .def_323 .def_325))
(define-fun .def_152 () Bool (= !pc.next 0))
(define-fun .def_143 () Bool (= .def_60 175))
(define-fun .def_153 () Bool (and .def_143 .def_152))
(define-fun .def_98 () Bool (<= .def_8 .def_14))
(define-fun .def_135 () Bool (and .def_98 .def_109))
(define-fun .def_136 () Bool (and .def_111 .def_135))
(define-fun .def_137 () Bool (and .def_113 .def_136))
(define-fun .def_138 () Bool (and .def_115 .def_137))
(define-fun .def_139 () Bool (and .def_117 .def_138))
(define-fun .def_140 () Bool (and .def_119 .def_139))
(define-fun .def_141 () Bool (and .def_91 .def_140))
(define-fun .def_154 () Bool (and .def_141 .def_153))
(define-fun .def_149 () Bool (and .def_143 .def_148))
(define-fun .def_126 () Int (* (- 1) |!{$(in_main#0)<k#1>}.next|))
(define-fun .def_127 () Int (+ .def_14 .def_126))
(define-fun .def_128 () Bool (= .def_127 (- 1)))
(define-fun .def_129 () Bool (and .def_124 .def_128))
(define-fun .def_130 () Bool (and .def_117 .def_129))
(define-fun .def_131 () Bool (and .def_119 .def_130))
(define-fun .def_132 () Bool (and .def_91 .def_131))
(define-fun .def_100 () Int (+ .def_10 .def_14))
(define-fun .def_101 () Int (select .def_20 .def_100))
(define-fun .def_102 () Bool (<= .def_101 .def_16))
(define-fun .def_103 () Int (ite .def_102 1 0))
(define-fun .def_104 () Bool (= .def_103 0))
(define-fun .def_105 () Bool (not .def_104))
(define-fun .def_133 () Bool (and .def_105 .def_132))
(define-fun .def_99 () Bool (not .def_98))
(define-fun .def_134 () Bool (and .def_99 .def_133))
(define-fun .def_150 () Bool (and .def_134 .def_149))
(define-fun .def_145 () Bool (= !pc.next 195))
(define-fun .def_146 () Bool (and .def_143 .def_145))
(define-fun .def_110 () Bool (and .def_104 .def_109))
(define-fun .def_112 () Bool (and .def_110 .def_111))
(define-fun .def_114 () Bool (and .def_112 .def_113))
(define-fun .def_116 () Bool (and .def_114 .def_115))
(define-fun .def_118 () Bool (and .def_116 .def_117))
(define-fun .def_120 () Bool (and .def_118 .def_119))
(define-fun .def_121 () Bool (and .def_91 .def_120))
(define-fun .def_122 () Bool (and .def_99 .def_121))
(define-fun .def_147 () Bool (and .def_122 .def_146))
(define-fun .def_151 () Bool (or .def_147 .def_150))
(define-fun .def_155 () Bool (or .def_151 .def_154))
(define-fun .def_96 () Bool (and .def_63 .def_95))
(define-fun .def_89 () Bool (= |!{%memaddr}.next| 2))
(define-fun .def_87 () Bool (= |!{$(in_main#0)<max>}.next| |%{$(in_main#0)<max>}#1|))
(define-fun .def_85 () Bool (= |!{$(in_main#0)<k#1>}.next| |%{$(in_main#0)<k#1>}#1|))
(define-fun .def_83 () Bool (= |!{$(in_main#0)<k>}.next| 0))
(define-fun .def_81 () Bool (= |!{$(in_main#0)<&array>}.next| 1))
(define-fun .def_80 () Bool (= |!{$(in_main#0)<N>}.next| |!{$(in_main#0)<$(in___VERIFIER_nondet_int#1)<h#<__VERIFIER_nondet_int.return>>>}|))
(define-fun .def_82 () Bool (and .def_80 .def_81))
(define-fun .def_84 () Bool (and .def_82 .def_83))
(define-fun .def_86 () Bool (and .def_84 .def_85))
(define-fun .def_88 () Bool (and .def_86 .def_87))
(define-fun .def_90 () Bool (and .def_88 .def_89))
(define-fun .def_92 () Bool (and .def_90 .def_91))
(define-fun .def_75 () Bool (<= |!{$(in_main#0)<$(in___VERIFIER_nondet_int#1)<h#<__VERIFIER_nondet_int.return>>>}| 0))
(define-fun .def_76 () Bool (not .def_75))
(define-fun .def_77 () Int (ite .def_76 1 0))
(define-fun .def_78 () Bool (= .def_77 0))
(define-fun .def_79 () Bool (not .def_78))
(define-fun .def_93 () Bool (and .def_79 .def_92))
(define-fun .def_97 () Bool (and .def_93 .def_96))
(define-fun .def_156 () Bool (or .def_97 .def_155))
(define-fun .def_327 () Bool (! (or .def_156 .def_326) :trans true))
(define-fun .def_157 () Bool (= .def_60 195))
(define-fun .def_328 () Bool (! (not .def_157) :invar-property 0 :invar-property-name ||))
(assert true)
